\ENCODING=ISO-8859-1
\Problem name: 

Maximize
 obj1: h_0 + h_1 + h_2 + h_3 + h_4 + h_5 + h_6 + h_7 + h_8 + h_9
Subject To
 h_0_leq:   h_0 <= 1
 h_1_leq:   h_1 <= 1
 h_2_leq:   h_2 <= 1
 h_3_leq:   h_3 <= 1
 h_4_leq:   h_4 <= 1
 h_5_leq:   h_5 <= 1
 h_6_leq:   h_6 <= 1
 h_7_leq:   h_7 <= 1
 h_8_leq:   h_8 <= 1
 h_9_leq:   h_9 <= 0
 h_0_leq_1: h_0 <= 1
 h_0_leq_2: h_0 <= 1
 h_0_leq_3: h_0 <= 1
 h_0_leq_4: h_0 <= 1
 h_0_leq_5: h_0 <= 1
 h_0_leq_6: h_0 <= 1
 h_0_leq_7: h_0 <= 1
 h_0_leq_8: h_0 <= 1
 h_0_leq_9: h_0 <= 0
 h_1_leq_0: h_1 <= 1
 h_1_leq_2: h_1 <= 1
 h_1_leq_3: h_1 <= 1
 h_1_leq_4: h_1 <= 1
 h_1_leq_5: h_1 <= 1
 h_1_leq_6: h_1 <= 1
 h_1_leq_7: h_1 <= 1
 h_1_leq_8: h_1 <= 1
 h_1_leq_9: h_1 <= 0
 h_2_leq_0: h_2 <= 1
 h_2_leq_1: h_2 <= 1
 h_2_leq_3: h_2 <= 1
 h_2_leq_4: h_2 <= 1
 h_2_leq_5: h_2 <= 1
 h_2_leq_6: h_2 <= 1
 h_2_leq_7: h_2 <= 1
 h_2_leq_8: h_2 <= 1
 h_2_leq_9: h_2 <= 0
 h_3_leq_0: h_3 <= 1
 h_3_leq_1: h_3 <= 1
 h_3_leq_2: h_3 <= 1
 h_3_leq_4: h_3 <= 1
 h_3_leq_5: h_3 <= 1
 h_3_leq_6: h_3 <= 1
 h_3_leq_7: h_3 <= 1
 h_3_leq_8: h_3 <= 1
 h_4_leq_0: h_4 <= 1
 h_4_leq_1: h_4 <= 1
 h_4_leq_2: h_4 <= 1
 h_4_leq_3: h_4 <= 1
 h_4_leq_5: h_4 <= 1
 h_4_leq_6: h_4 <= 1
 h_4_leq_7: h_4 <= 1
 h_5_leq_0: h_5 <= 1
 h_5_leq_1: h_5 <= 1
 h_5_leq_2: h_5 <= 1
 h_5_leq_3: h_5 <= 1
 h_5_leq_4: h_5 <= 1
 h_5_leq_8: h_5 <= 1
 h_5_leq_9: h_5 <= 0
 h_6_leq_0: h_6 <= 1
 h_6_leq_1: h_6 <= 1
 h_6_leq_2: h_6 <= 1
 h_6_leq_3: h_6 <= 1
 h_6_leq_4: h_6 <= 1
 h_6_leq_9: h_6 <= 0
 h_7_leq_0: h_7 <= 1
 h_7_leq_1: h_7 <= 1
 h_7_leq_2: h_7 <= 1
 h_7_leq_3: h_7 <= 1
 h_7_leq_4: h_7 <= 1
 h_8_leq_0: h_8 <= 1
 h_8_leq_1: h_8 <= 1
 h_8_leq_2: h_8 <= 1
 h_8_leq_3: h_8 <= 1
 h_8_leq_5: h_8 <= 1
 h_9_leq_0: h_9 <= 1
 h_9_leq_1: h_9 <= 1
 h_9_leq_2: h_9 <= 1
 h_9_leq_5: h_9 <= 1
 h_9_leq_6: h_9 <= 1
 h_0_geq:   h_0 >= 0
 h_1_geq:   h_1 >= 0
 h_2_geq:   h_2 >= 0
 h_3_geq:   h_3 >= 1
 h_4_geq:   h_4 >= 1
 h_5_geq:   h_5 >= 0
 h_6_geq:   h_6 >= 0
 h_7_geq:   h_7 >= 1
 h_8_geq:   h_8 >= 1
 h_9_geq:   h_9 >= 0
Bounds
 0 <= h_0 <= 1
 0 <= h_1 <= 1
 0 <= h_2 <= 1
 0 <= h_3 <= 1
 0 <= h_4 <= 1
 0 <= h_5 <= 1
 0 <= h_6 <= 1
 0 <= h_7 <= 1
 0 <= h_8 <= 1
 0 <= h_9 <= 1
End
